(set-info :source |printed by MathSAT|)
(declare-fun |!{$(in_main#0)<volArray.1>}| () (Array Int Int))
(declare-fun |!{$(in_main#0)<volArray.1>}.next| () (Array Int Int))
(declare-fun |!{$(in_main#0)<CELLCOUNT_5>}| () Int)
(declare-fun |!{$(in_main#0)<CELLCOUNT_5>}.next| () Int)
(declare-fun |!{$(in_main#0)<i>}| () Int)
(declare-fun |!{$(in_main#0)<i>}.next| () Int)
(declare-fun |!{$(in_main#0)<j>}| () Int)
(declare-fun |!{$(in_main#0)<j>}.next| () Int)
(declare-fun |!{$(in_main#0)<k>}| () Int)
(declare-fun |!{$(in_main#0)<k>}.next| () Int)
(declare-fun |!{$(in_main#0)<l>}| () Int)
(declare-fun |!{$(in_main#0)<l>}.next| () Int)
(declare-fun |!{$(in_main#0)<m>}| () Int)
(declare-fun |!{$(in_main#0)<m>}.next| () Int)
(declare-fun |!{$(in_main#0)<n>}| () Int)
(declare-fun |!{$(in_main#0)<n>}.next| () Int)
(declare-fun |!{$(in_main#0)<$(in___VERIFIER_nondet_int#0)<h#<__VERIFIER_nondet_int.return>>>}| () Int)
(declare-fun !pc () Int)
(declare-fun !pc.next () Int)
(declare-fun |%{$(in_main#0)<j>}#1| () Int)
(declare-fun |%{$(in_main#0)<k>}#1| () Int)
(declare-fun |%{$(in_main#0)<l>}#1| () Int)
(declare-fun |%{$(in_main#0)<m>}#1| () Int)
(declare-fun |%{$(in_main#0)<n>}#1| () Int)
(declare-fun |%{$(in_main#0)<volArray.1>}#1| () (Array Int Int))
(declare-fun |%{$(in_main#0)<volArray.1>}#2| () (Array Int Int))
(define-fun .def_34 () Int (! !pc :next !pc.next))
(define-fun .def_37 () Bool (! (= .def_34 2) :init true))
(define-fun .def_483 () Bool (= .def_34 40))
(define-fun .def_409 () Bool (= !pc.next 67))
(define-fun .def_486 () Bool (and .def_409 .def_483))
(define-fun .def_476 () Bool (= |!{$(in_main#0)<j>}.next| 1))
(define-fun .def_10 () Int (! |!{$(in_main#0)<CELLCOUNT_5>}| :next |!{$(in_main#0)<CELLCOUNT_5>}.next|))
(define-fun .def_97 () Bool (= .def_10 |!{$(in_main#0)<CELLCOUNT_5>}.next|))
(define-fun .def_8 () (Array Int Int) (! |!{$(in_main#0)<volArray.1>}| :next |!{$(in_main#0)<volArray.1>}.next|))
(define-fun .def_95 () Bool (= .def_8 |!{$(in_main#0)<volArray.1>}.next|))
(define-fun .def_112 () Bool (and .def_95 .def_97))
(define-fun .def_12 () Int (! |!{$(in_main#0)<i>}| :next |!{$(in_main#0)<i>}.next|))
(define-fun .def_99 () Bool (= .def_12 |!{$(in_main#0)<i>}.next|))
(define-fun .def_113 () Bool (and .def_99 .def_112))
(define-fun .def_477 () Bool (and .def_113 .def_476))
(define-fun .def_16 () Int (! |!{$(in_main#0)<k>}| :next |!{$(in_main#0)<k>}.next|))
(define-fun .def_103 () Bool (= .def_16 |!{$(in_main#0)<k>}.next|))
(define-fun .def_478 () Bool (and .def_103 .def_477))
(define-fun .def_18 () Int (! |!{$(in_main#0)<l>}| :next |!{$(in_main#0)<l>}.next|))
(define-fun .def_105 () Bool (= .def_18 |!{$(in_main#0)<l>}.next|))
(define-fun .def_479 () Bool (and .def_105 .def_478))
(define-fun .def_20 () Int (! |!{$(in_main#0)<m>}| :next |!{$(in_main#0)<m>}.next|))
(define-fun .def_107 () Bool (= .def_20 |!{$(in_main#0)<m>}.next|))
(define-fun .def_480 () Bool (and .def_107 .def_479))
(define-fun .def_22 () Int (! |!{$(in_main#0)<n>}| :next |!{$(in_main#0)<n>}.next|))
(define-fun .def_109 () Bool (= .def_22 |!{$(in_main#0)<n>}.next|))
(define-fun .def_481 () Bool (and .def_109 .def_480))
(define-fun .def_416 () Bool (<= .def_12 .def_10))
(define-fun .def_444 () Bool (not .def_416))
(define-fun .def_482 () Bool (and .def_444 .def_481))
(define-fun .def_487 () Bool (and .def_482 .def_486))
(define-fun .def_76 () Bool (= !pc.next 40))
(define-fun .def_484 () Bool (and .def_76 .def_483))
(define-fun .def_418 () Int (* 5 .def_12))
(define-fun .def_440 () Int (+ .def_418 (- 1)))
(define-fun .def_464 () Int (select |%{$(in_main#0)<volArray.1>}#2| .def_440))
(define-fun .def_436 () Int (+ .def_418 (- 2)))
(define-fun .def_461 () Int (select |%{$(in_main#0)<volArray.1>}#2| .def_436))
(define-fun .def_432 () Int (+ .def_418 (- 3)))
(define-fun .def_458 () Int (select |%{$(in_main#0)<volArray.1>}#2| .def_432))
(define-fun .def_428 () Int (+ .def_418 (- 4)))
(define-fun .def_429 () Int (select |%{$(in_main#0)<volArray.1>}#2| .def_428))
(define-fun .def_430 () (Array Int Int) (store |%{$(in_main#0)<volArray.1>}#2| .def_428 .def_429))
(define-fun .def_459 () (Array Int Int) (store .def_430 .def_432 .def_458))
(define-fun .def_462 () (Array Int Int) (store .def_459 .def_436 .def_461))
(define-fun .def_465 () (Array Int Int) (store .def_462 .def_440 .def_464))
(define-fun .def_466 () Bool (= |!{$(in_main#0)<volArray.1>}.next| .def_465))
(define-fun .def_467 () Bool (and .def_97 .def_466))
(define-fun .def_447 () Int (* (- 1) |!{$(in_main#0)<i>}.next|))
(define-fun .def_448 () Int (+ .def_12 .def_447))
(define-fun .def_449 () Bool (= .def_448 (- 1)))
(define-fun .def_468 () Bool (and .def_449 .def_467))
(define-fun .def_14 () Int (! |!{$(in_main#0)<j>}| :next |!{$(in_main#0)<j>}.next|))
(define-fun .def_101 () Bool (= .def_14 |!{$(in_main#0)<j>}.next|))
(define-fun .def_469 () Bool (and .def_101 .def_468))
(define-fun .def_470 () Bool (and .def_103 .def_469))
(define-fun .def_471 () Bool (and .def_105 .def_470))
(define-fun .def_472 () Bool (and .def_107 .def_471))
(define-fun .def_473 () Bool (and .def_109 .def_472))
(define-fun .def_420 () Int (+ .def_418 (- 5)))
(define-fun .def_421 () (Array Int Int) (store .def_8 .def_420 8))
(define-fun .def_424 () Bool (= |%{$(in_main#0)<volArray.1>}#2| .def_421))
(define-fun .def_474 () Bool (and .def_424 .def_473))
(define-fun .def_475 () Bool (and .def_416 .def_474))
(define-fun .def_485 () Bool (and .def_475 .def_484))
(define-fun .def_488 () Bool (or .def_485 .def_487))
(define-fun .def_408 () Bool (= .def_34 67))
(define-fun .def_335 () Bool (= !pc.next 94))
(define-fun .def_412 () Bool (and .def_335 .def_408))
(define-fun .def_401 () Bool (= |!{$(in_main#0)<k>}.next| 1))
(define-fun .def_114 () Bool (and .def_101 .def_113))
(define-fun .def_402 () Bool (and .def_114 .def_401))
(define-fun .def_403 () Bool (and .def_105 .def_402))
(define-fun .def_404 () Bool (and .def_107 .def_403))
(define-fun .def_405 () Bool (and .def_109 .def_404))
(define-fun .def_342 () Bool (<= .def_14 .def_10))
(define-fun .def_369 () Bool (not .def_342))
(define-fun .def_406 () Bool (and .def_369 .def_405))
(define-fun .def_413 () Bool (and .def_406 .def_412))
(define-fun .def_410 () Bool (and .def_408 .def_409))
(define-fun .def_343 () Int (* 5 .def_14))
(define-fun .def_365 () Int (+ .def_343 (- 1)))
(define-fun .def_389 () Int (select |%{$(in_main#0)<volArray.1>}#2| .def_365))
(define-fun .def_361 () Int (+ .def_343 (- 2)))
(define-fun .def_386 () Int (select |%{$(in_main#0)<volArray.1>}#2| .def_361))
(define-fun .def_357 () Int (+ .def_343 (- 3)))
(define-fun .def_383 () Int (select |%{$(in_main#0)<volArray.1>}#2| .def_357))
(define-fun .def_353 () Int (+ .def_343 (- 5)))
(define-fun .def_354 () Int (select |%{$(in_main#0)<volArray.1>}#2| .def_353))
(define-fun .def_355 () (Array Int Int) (store |%{$(in_main#0)<volArray.1>}#2| .def_353 .def_354))
(define-fun .def_384 () (Array Int Int) (store .def_355 .def_357 .def_383))
(define-fun .def_387 () (Array Int Int) (store .def_384 .def_361 .def_386))
(define-fun .def_390 () (Array Int Int) (store .def_387 .def_365 .def_389))
(define-fun .def_391 () Bool (= |!{$(in_main#0)<volArray.1>}.next| .def_390))
(define-fun .def_392 () Bool (and .def_97 .def_391))
(define-fun .def_393 () Bool (and .def_99 .def_392))
(define-fun .def_373 () Int (* (- 1) |!{$(in_main#0)<j>}.next|))
(define-fun .def_374 () Int (+ .def_14 .def_373))
(define-fun .def_375 () Bool (= .def_374 (- 1)))
(define-fun .def_394 () Bool (and .def_375 .def_393))
(define-fun .def_395 () Bool (and .def_103 .def_394))
(define-fun .def_396 () Bool (and .def_105 .def_395))
(define-fun .def_397 () Bool (and .def_107 .def_396))
(define-fun .def_398 () Bool (and .def_109 .def_397))
(define-fun .def_345 () Int (+ .def_343 (- 4)))
(define-fun .def_346 () (Array Int Int) (store .def_8 .def_345 5))
(define-fun .def_349 () Bool (= |%{$(in_main#0)<volArray.1>}#2| .def_346))
(define-fun .def_399 () Bool (and .def_349 .def_398))
(define-fun .def_400 () Bool (and .def_342 .def_399))
(define-fun .def_411 () Bool (and .def_400 .def_410))
(define-fun .def_414 () Bool (or .def_411 .def_413))
(define-fun .def_334 () Bool (= .def_34 94))
(define-fun .def_261 () Bool (= !pc.next 121))
(define-fun .def_338 () Bool (and .def_261 .def_334))
(define-fun .def_328 () Bool (= |!{$(in_main#0)<l>}.next| 1))
(define-fun .def_115 () Bool (and .def_103 .def_114))
(define-fun .def_329 () Bool (and .def_115 .def_328))
(define-fun .def_330 () Bool (and .def_107 .def_329))
(define-fun .def_331 () Bool (and .def_109 .def_330))
(define-fun .def_268 () Bool (<= .def_16 .def_10))
(define-fun .def_296 () Bool (not .def_268))
(define-fun .def_332 () Bool (and .def_296 .def_331))
(define-fun .def_339 () Bool (and .def_332 .def_338))
(define-fun .def_336 () Bool (and .def_334 .def_335))
(define-fun .def_270 () Int (* 5 .def_16))
(define-fun .def_292 () Int (+ .def_270 (- 1)))
(define-fun .def_316 () Int (select |%{$(in_main#0)<volArray.1>}#2| .def_292))
(define-fun .def_288 () Int (+ .def_270 (- 2)))
(define-fun .def_313 () Int (select |%{$(in_main#0)<volArray.1>}#2| .def_288))
(define-fun .def_284 () Int (+ .def_270 (- 4)))
(define-fun .def_310 () Int (select |%{$(in_main#0)<volArray.1>}#2| .def_284))
(define-fun .def_280 () Int (+ .def_270 (- 5)))
(define-fun .def_281 () Int (select |%{$(in_main#0)<volArray.1>}#2| .def_280))
(define-fun .def_282 () (Array Int Int) (store |%{$(in_main#0)<volArray.1>}#2| .def_280 .def_281))
(define-fun .def_311 () (Array Int Int) (store .def_282 .def_284 .def_310))
(define-fun .def_314 () (Array Int Int) (store .def_311 .def_288 .def_313))
(define-fun .def_317 () (Array Int Int) (store .def_314 .def_292 .def_316))
(define-fun .def_318 () Bool (= |!{$(in_main#0)<volArray.1>}.next| .def_317))
(define-fun .def_319 () Bool (and .def_97 .def_318))
(define-fun .def_320 () Bool (and .def_99 .def_319))
(define-fun .def_321 () Bool (and .def_101 .def_320))
(define-fun .def_301 () Int (* (- 1) |!{$(in_main#0)<k>}.next|))
(define-fun .def_302 () Int (+ .def_16 .def_301))
(define-fun .def_303 () Bool (= .def_302 (- 1)))
(define-fun .def_322 () Bool (and .def_303 .def_321))
(define-fun .def_323 () Bool (and .def_105 .def_322))
(define-fun .def_324 () Bool (and .def_107 .def_323))
(define-fun .def_325 () Bool (and .def_109 .def_324))
(define-fun .def_272 () Int (+ .def_270 (- 3)))
(define-fun .def_273 () (Array Int Int) (store .def_8 .def_272 7))
(define-fun .def_276 () Bool (= |%{$(in_main#0)<volArray.1>}#2| .def_273))
(define-fun .def_326 () Bool (and .def_276 .def_325))
(define-fun .def_327 () Bool (and .def_268 .def_326))
(define-fun .def_337 () Bool (and .def_327 .def_336))
(define-fun .def_340 () Bool (or .def_337 .def_339))
(define-fun .def_260 () Bool (= .def_34 121))
(define-fun .def_188 () Bool (= !pc.next 148))
(define-fun .def_264 () Bool (and .def_188 .def_260))
(define-fun .def_255 () Bool (= |!{$(in_main#0)<m>}.next| 1))
(define-fun .def_116 () Bool (and .def_105 .def_115))
(define-fun .def_256 () Bool (and .def_116 .def_255))
(define-fun .def_257 () Bool (and .def_109 .def_256))
(define-fun .def_195 () Bool (<= .def_18 .def_10))
(define-fun .def_223 () Bool (not .def_195))
(define-fun .def_258 () Bool (and .def_223 .def_257))
(define-fun .def_265 () Bool (and .def_258 .def_264))
(define-fun .def_262 () Bool (and .def_260 .def_261))
(define-fun .def_196 () Int (* 5 .def_18))
(define-fun .def_219 () Int (+ .def_196 (- 1)))
(define-fun .def_243 () Int (select |%{$(in_main#0)<volArray.1>}#2| .def_219))
(define-fun .def_215 () Int (+ .def_196 (- 3)))
(define-fun .def_240 () Int (select |%{$(in_main#0)<volArray.1>}#2| .def_215))
(define-fun .def_211 () Int (+ .def_196 (- 4)))
(define-fun .def_237 () Int (select |%{$(in_main#0)<volArray.1>}#2| .def_211))
(define-fun .def_207 () Int (+ .def_196 (- 5)))
(define-fun .def_208 () Int (select |%{$(in_main#0)<volArray.1>}#2| .def_207))
(define-fun .def_209 () (Array Int Int) (store |%{$(in_main#0)<volArray.1>}#2| .def_207 .def_208))
(define-fun .def_238 () (Array Int Int) (store .def_209 .def_211 .def_237))
(define-fun .def_241 () (Array Int Int) (store .def_238 .def_215 .def_240))
(define-fun .def_244 () (Array Int Int) (store .def_241 .def_219 .def_243))
(define-fun .def_245 () Bool (= |!{$(in_main#0)<volArray.1>}.next| .def_244))
(define-fun .def_246 () Bool (and .def_97 .def_245))
(define-fun .def_247 () Bool (and .def_99 .def_246))
(define-fun .def_248 () Bool (and .def_101 .def_247))
(define-fun .def_249 () Bool (and .def_103 .def_248))
(define-fun .def_229 () Int (* (- 1) |!{$(in_main#0)<l>}.next|))
(define-fun .def_230 () Int (+ .def_18 .def_229))
(define-fun .def_231 () Bool (= .def_230 (- 1)))
(define-fun .def_250 () Bool (and .def_231 .def_249))
(define-fun .def_251 () Bool (and .def_107 .def_250))
(define-fun .def_252 () Bool (and .def_109 .def_251))
(define-fun .def_198 () Int (+ .def_196 (- 2)))
(define-fun .def_199 () (Array Int Int) (store .def_8 .def_198 3))
(define-fun .def_203 () Bool (= .def_199 |%{$(in_main#0)<volArray.1>}#2|))
(define-fun .def_253 () Bool (and .def_203 .def_252))
(define-fun .def_254 () Bool (and .def_195 .def_253))
(define-fun .def_263 () Bool (and .def_254 .def_262))
(define-fun .def_266 () Bool (or .def_263 .def_265))
(define-fun .def_187 () Bool (= .def_34 148))
(define-fun .def_138 () Bool (= !pc.next 175))
(define-fun .def_191 () Bool (and .def_138 .def_187))
(define-fun .def_183 () Bool (= |!{$(in_main#0)<n>}.next| 0))
(define-fun .def_117 () Bool (and .def_107 .def_116))
(define-fun .def_184 () Bool (and .def_117 .def_183))
(define-fun .def_149 () Bool (<= .def_20 .def_10))
(define-fun .def_170 () Bool (not .def_149))
(define-fun .def_185 () Bool (and .def_170 .def_184))
(define-fun .def_192 () Bool (and .def_185 .def_191))
(define-fun .def_189 () Bool (and .def_187 .def_188))
(define-fun .def_177 () Int (* (- 1) |!{$(in_main#0)<m>}.next|))
(define-fun .def_178 () Int (+ .def_20 .def_177))
(define-fun .def_179 () Bool (= .def_178 (- 1)))
(define-fun .def_150 () Int (* 5 .def_20))
(define-fun .def_152 () Int (+ .def_150 (- 1)))
(define-fun .def_154 () (Array Int Int) (store .def_8 .def_152 0))
(define-fun .def_171 () Bool (= |!{$(in_main#0)<volArray.1>}.next| .def_154))
(define-fun .def_172 () Bool (and .def_97 .def_171))
(define-fun .def_173 () Bool (and .def_99 .def_172))
(define-fun .def_174 () Bool (and .def_101 .def_173))
(define-fun .def_175 () Bool (and .def_103 .def_174))
(define-fun .def_176 () Bool (and .def_105 .def_175))
(define-fun .def_180 () Bool (and .def_176 .def_179))
(define-fun .def_181 () Bool (and .def_109 .def_180))
(define-fun .def_182 () Bool (and .def_149 .def_181))
(define-fun .def_190 () Bool (and .def_182 .def_189))
(define-fun .def_193 () Bool (or .def_190 .def_192))
(define-fun .def_142 () Bool (= !pc.next 0))
(define-fun .def_133 () Bool (= .def_34 175))
(define-fun .def_143 () Bool (and .def_133 .def_142))
(define-fun .def_81 () Int (* (- 1) .def_22))
(define-fun .def_79 () Int (* 5 .def_10))
(define-fun .def_82 () Int (+ .def_79 .def_81))
(define-fun .def_83 () Bool (<= .def_82 0))
(define-fun .def_124 () Bool (and .def_83 .def_95))
(define-fun .def_125 () Bool (and .def_97 .def_124))
(define-fun .def_126 () Bool (and .def_99 .def_125))
(define-fun .def_127 () Bool (and .def_101 .def_126))
(define-fun .def_128 () Bool (and .def_103 .def_127))
(define-fun .def_129 () Bool (and .def_105 .def_128))
(define-fun .def_130 () Bool (and .def_107 .def_129))
(define-fun .def_131 () Bool (and .def_109 .def_130))
(define-fun .def_144 () Bool (and .def_131 .def_143))
(define-fun .def_139 () Bool (and .def_133 .def_138))
(define-fun .def_118 () Int (* (- 1) |!{$(in_main#0)<n>}.next|))
(define-fun .def_119 () Int (+ .def_22 .def_118))
(define-fun .def_120 () Bool (= .def_119 (- 1)))
(define-fun .def_121 () Bool (and .def_117 .def_120))
(define-fun .def_85 () Int (select .def_8 .def_22))
(define-fun .def_87 () Bool (= .def_85 0))
(define-fun .def_86 () Bool (<= 2 .def_85))
(define-fun .def_88 () Bool (or .def_86 .def_87))
(define-fun .def_89 () Int (ite .def_88 1 0))
(define-fun .def_90 () Bool (= .def_89 0))
(define-fun .def_91 () Bool (not .def_90))
(define-fun .def_122 () Bool (and .def_91 .def_121))
(define-fun .def_84 () Bool (not .def_83))
(define-fun .def_123 () Bool (and .def_84 .def_122))
(define-fun .def_140 () Bool (and .def_123 .def_139))
(define-fun .def_135 () Bool (= !pc.next 195))
(define-fun .def_136 () Bool (and .def_133 .def_135))
(define-fun .def_96 () Bool (and .def_90 .def_95))
(define-fun .def_98 () Bool (and .def_96 .def_97))
(define-fun .def_100 () Bool (and .def_98 .def_99))
(define-fun .def_102 () Bool (and .def_100 .def_101))
(define-fun .def_104 () Bool (and .def_102 .def_103))
(define-fun .def_106 () Bool (and .def_104 .def_105))
(define-fun .def_108 () Bool (and .def_106 .def_107))
(define-fun .def_110 () Bool (and .def_108 .def_109))
(define-fun .def_111 () Bool (and .def_84 .def_110))
(define-fun .def_137 () Bool (and .def_111 .def_136))
(define-fun .def_141 () Bool (or .def_137 .def_140))
(define-fun .def_145 () Bool (or .def_141 .def_144))
(define-fun .def_77 () Bool (and .def_37 .def_76))
(define-fun .def_72 () Bool (= |!{$(in_main#0)<n>}.next| |%{$(in_main#0)<n>}#1|))
(define-fun .def_70 () Bool (= |!{$(in_main#0)<m>}.next| |%{$(in_main#0)<m>}#1|))
(define-fun .def_68 () Bool (= |!{$(in_main#0)<l>}.next| |%{$(in_main#0)<l>}#1|))
(define-fun .def_66 () Bool (= |!{$(in_main#0)<k>}.next| |%{$(in_main#0)<k>}#1|))
(define-fun .def_64 () Bool (= |!{$(in_main#0)<j>}.next| |%{$(in_main#0)<j>}#1|))
(define-fun .def_62 () Bool (= |!{$(in_main#0)<i>}.next| 1))
(define-fun .def_60 () Bool (= |!{$(in_main#0)<CELLCOUNT_5>}.next| |!{$(in_main#0)<$(in___VERIFIER_nondet_int#0)<h#<__VERIFIER_nondet_int.return>>>}|))
(define-fun .def_59 () Bool (= |!{$(in_main#0)<volArray.1>}.next| |%{$(in_main#0)<volArray.1>}#1|))
(define-fun .def_61 () Bool (and .def_59 .def_60))
(define-fun .def_63 () Bool (and .def_61 .def_62))
(define-fun .def_65 () Bool (and .def_63 .def_64))
(define-fun .def_67 () Bool (and .def_65 .def_66))
(define-fun .def_69 () Bool (and .def_67 .def_68))
(define-fun .def_71 () Bool (and .def_69 .def_70))
(define-fun .def_73 () Bool (and .def_71 .def_72))
(define-fun .def_54 () Bool (<= |!{$(in_main#0)<$(in___VERIFIER_nondet_int#0)<h#<__VERIFIER_nondet_int.return>>>}| 0))
(define-fun .def_55 () Bool (not .def_54))
(define-fun .def_56 () Int (ite .def_55 1 0))
(define-fun .def_57 () Bool (= .def_56 0))
(define-fun .def_58 () Bool (not .def_57))
(define-fun .def_74 () Bool (and .def_58 .def_73))
(define-fun .def_78 () Bool (and .def_74 .def_77))
(define-fun .def_146 () Bool (or .def_78 .def_145))
(define-fun .def_194 () Bool (or .def_146 .def_193))
(define-fun .def_267 () Bool (or .def_194 .def_266))
(define-fun .def_341 () Bool (or .def_267 .def_340))
(define-fun .def_415 () Bool (or .def_341 .def_414))
(define-fun .def_489 () Bool (! (or .def_415 .def_488) :trans true))
(define-fun .def_147 () Bool (= .def_34 195))
(define-fun .def_490 () Bool (! (not .def_147) :invar-property 0 :invar-property-name ||))
(assert true)
